h 4 -3 0
h -11 16 0
h -6 -12 0
249156760237669 -9 0
6926720794712893 -11 0
1 -14 0
h -5 -13 0
7901704441671467 12 0
9478902543571792 8 13 0
h 9 8 0
h 11 3 0
h 1 2 0
h -4 -15 0
6384570593205462 -8 0
h 6 5 0
h -2 15 0
1304740063877216 10 0
h 14 0
h 12 -10 0
1 -16 0
h -1 2 0
